db/data/21348851201231416015962888659223444.z3.out
sat
-------------------
.666617638
